
c turning on binary mode checking

c parsing input formula with 7182 variables and 28470 clauses

c finished parsing, read 21728 bytes from proof file

c detected empty clause; start verification via backward checking

c 2131 of 28470 clauses in core                            

c 60 of 5350 lemmas in core using 54079 resolution steps

c 0 RAT lemmas in core; 13 redundant literals in core lemmas

s VERIFIED

c verification time: 0.064 seconds
